certificates/rado_a11_c128_N29.cnf
c Rad2 upper bound instance: x1 + 11*x2 - x3 = 128, interval [1,29]
p cnf 29 150
1 5 12 0
-1 -5 -12 0
1 13 16 0
-1 -13 -16 0
1 14 27 0
-1 -14 -27 0
2 6 12 0
-2 -6 -12 0
2 13 17 0
-2 -13 -17 0
2 14 28 0
-2 -14 -28 0
3 7 12 0
-3 -7 -12 0
3 13 18 0
-3 -13 -18 0
3 14 29 0
-3 -14 -29 0
4 8 12 0
-4 -8 -12 0
4 13 19 0
-4 -13 -19 0
5 9 12 0
-5 -9 -12 0
5 13 20 0
-5 -13 -20 0
6 10 12 0
-6 -10 -12 0
6 13 21 0
-6 -13 -21 0
7 11 12 0
-7 -11 -12 0
7 13 22 0
-7 -13 -22 0
1 8 11 0
-1 -8 -11 0
8 12 0
-8 -12 0
8 13 23 0
-8 -13 -23 0
2 9 11 0
-2 -9 -11 0
9 12 13 0
-9 -12 -13 0
9 13 24 0
-9 -13 -24 0
3 10 11 0
-3 -10 -11 0
10 12 14 0
-10 -12 -14 0
10 13 25 0
-10 -13 -25 0
4 11 0
-4 -11 0
11 12 15 0
-11 -12 -15 0
11 13 26 0
-11 -13 -26 0
5 11 12 0
-5 -11 -12 0
12 16 0
-12 -16 0
12 13 27 0
-12 -13 -27 0
6 11 13 0
-6 -11 -13 0
12 13 17 0
-12 -13 -17 0
13 28 0
-13 -28 0
7 11 14 0
-7 -11 -14 0
12 14 18 0
-12 -14 -18 0
13 14 29 0
-13 -14 -29 0
8 11 15 0
-8 -11 -15 0
12 15 19 0
-12 -15 -19 0
9 11 16 0
-9 -11 -16 0
12 16 20 0
-12 -16 -20 0
10 11 17 0
-10 -11 -17 0
12 17 21 0
-12 -17 -21 0
11 18 0
-11 -18 0
12 18 22 0
-12 -18 -22 0
1 10 19 0
-1 -10 -19 0
11 12 19 0
-11 -12 -19 0
12 19 23 0
-12 -19 -23 0
2 10 20 0
-2 -10 -20 0
11 13 20 0
-11 -13 -20 0
12 20 24 0
-12 -20 -24 0
3 10 21 0
-3 -10 -21 0
11 14 21 0
-11 -14 -21 0
12 21 25 0
-12 -21 -25 0
4 10 22 0
-4 -10 -22 0
11 15 22 0
-11 -15 -22 0
12 22 26 0
-12 -22 -26 0
5 10 23 0
-5 -10 -23 0
11 16 23 0
-11 -16 -23 0
12 23 27 0
-12 -23 -27 0
6 10 24 0
-6 -10 -24 0
11 17 24 0
-11 -17 -24 0
12 24 28 0
-12 -24 -28 0
7 10 25 0
-7 -10 -25 0
11 18 25 0
-11 -18 -25 0
12 25 29 0
-12 -25 -29 0
8 10 26 0
-8 -10 -26 0
11 19 26 0
-11 -19 -26 0
9 10 27 0
-9 -10 -27 0
11 20 27 0
-11 -20 -27 0
10 28 0
-10 -28 0
11 21 28 0
-11 -21 -28 0
10 11 29 0
-10 -11 -29 0
11 22 29 0
-11 -22 -29 0
