certificates/rado_a11_c128_N29.drat
-28 -29 0
-29 0
-10 -13 0
d -10 -25 -13 0
28 0
-13 0
-10 0
14 0
25 0
11 0
-2 0
-4 0
-18 0
-21 0
-7 0
17 0
20 0
19 0
22 0
3 0
6 0
-24 0
-27 0
-26 0
-12 0
-15 0
9 0
0
